
Log started (V12.10.0.0) Fri Apr  2 17:34:29 2021


Problem 'asset.lp' read.
Read time = 0.00 sec. (0.26 ticks)
New value for default parallel thread count: 1
New value for time limit in seconds: 300
Version identifier: 12.10.0.0 | 2019-11-26 | 843d4de
CPXPARAM_Threads                                 1
CPXPARAM_TimeLimit                               300
Found incumbent of value -0.910110 after 0.00 sec. (0.12 ticks)
Tried aggregator 3 times.
MIP Presolve eliminated 648 rows and 387 columns.
MIP Presolve modified 2369 coefficients.
Aggregator did 770 substitutions.
Reduced MIP has 949 rows, 1063 columns, and 4558 nonzeros.
Reduced MIP has 925 binaries, 93 generals, 0 SOSs, and 0 indicators.
Presolve time = 0.01 sec. (11.49 ticks)
Probing fixed 49 vars, tightened 5 bounds.
Probing time = 0.01 sec. (6.97 ticks)
Cover probing fixed 0 vars, tightened 44 bounds.
Tried aggregator 1 time.
Detecting symmetries...
MIP Presolve eliminated 60 rows and 59 columns.
MIP Presolve modified 548 coefficients.
Reduced MIP has 889 rows, 1004 columns, and 4220 nonzeros.
Reduced MIP has 871 binaries, 88 generals, 0 SOSs, and 0 indicators.
Presolve time = 0.00 sec. (2.94 ticks)
Probing time = 0.00 sec. (2.86 ticks)
Clique table members: 2701.
MIP emphasis: balance optimality and feasibility.
MIP search method: dynamic search.
Parallel mode: none, using 1 thread.
Root relaxation solution time = 0.01 sec. (11.35 ticks)

        Nodes                                         Cuts/
   Node  Left     Objective  IInf  Best Integer    Best Bound    ItCnt     Gap

*     0+    0                           -0.9101      510.3485              --- 
      0     0      352.3494   158       -0.9101      352.3494      717     --- 
      0     0      342.3968   158       -0.9101     Cuts: 322      943     --- 
      0     0      342.0981   158       -0.9101     Cuts: 322     1104     --- 
      0     0      341.9805   158       -0.9101     Cuts: 206     1318     --- 
      0     0      341.6855   158       -0.9101     Cuts: 285     1421     --- 
      0     0      341.5244   158       -0.9101     Cuts: 312     1562     --- 
Detecting symmetries...
      0     0      341.2762   158       -0.9101     Cuts: 186     1691     --- 
      0     0      341.2520   158       -0.9101     Cuts: 181     1770     --- 
      0     0      341.1867   158       -0.9101     Cuts: 135     1862     --- 
      0     0      341.1367   158       -0.9101     Cuts: 219     1964     --- 
      0     0      340.7725   158       -0.9101      Cuts: 59     2164     --- 
      0     0      340.6976   158       -0.9101     Cuts: 143     2329     --- 
*     0+    0                           83.4688      340.6976           308.17%
      0     0        cutoff             83.4688      340.6976     2329  308.17%
      0     0      340.4274   158       83.4688     Cuts: 183     2662  307.85%
      0     0      340.0813   158       83.4688     Cuts: 222     2851  307.44%
*     0+    0                          263.9231      340.0813            28.86%
      0     0      339.5405   158      263.9231     Cuts: 251     2989   28.65%
      0     0      339.0132   158      263.9231     Cuts: 187     3157   28.45%
      0     0      338.9641   158      263.9231     Cuts: 213     3277   28.43%
      0     0      338.3735   158      263.9231     Cuts: 168     3517   28.21%
      0     0      338.0451   158      263.9231     Cuts: 164     3640   28.08%
      0     0      337.6935   158      263.9231     Cuts: 222     3844   27.95%
*     0+    0                          263.9255      337.6935            27.95%
*     0+    0                          263.9284      337.6935            27.95%
      0     0      337.4559   158      263.9284     Cuts: 196     3965   27.86%
      0     0      337.2600   158      263.9284     Cuts: 128     4137   27.78%
      0     0      336.9186   158      263.9284     Cuts: 184     4451   27.66%
      0     0      336.6567   158      263.9284     Cuts: 203     4607   27.56%
      0     0      336.5884   158      263.9284     Cuts: 128     4729   27.53%
*     0+    0                          275.7506      336.5884            22.06%
*     0+    0                          277.3497      336.5884            21.36%
      0     0        cutoff            277.3497      336.5884     4729   21.36%
Detecting symmetries...
      0     2      336.5884   224      277.3497      336.5827     4729   21.36%
Elapsed time = 0.59 sec. (656.49 ticks, tree = 0.01 MB, solutions = 6)
     32    34      333.1012   135      277.3497      336.5320     8455   21.34%
*   110+   91                          277.3503      336.5320            21.34%
    120   103      335.1382   184      277.3503      336.4722    13208   21.32%
*   240+  202                          277.9525      336.4722            21.05%
*   260+  207                          279.5251      336.4722            20.37%
    268   209      335.5979   193      279.5251      336.4402    19246   20.36%
*   360+  247                          292.6515      336.4398            14.96%
    368   257      307.9810   123      292.6515      336.4398    23597   14.96%
    461   340      323.6075   125      292.6515      336.4051    28838   14.95%

Performing restart 1

Repeating presolve.
Tried aggregator 2 times.
MIP Presolve eliminated 1 rows and 0 columns.
MIP Presolve modified 828 coefficients.
Aggregator did 8 substitutions.
Reduced MIP has 880 rows, 996 columns, and 3600 nonzeros.
Reduced MIP has 863 binaries, 88 generals, 0 SOSs, and 0 indicators.
Presolve time = 0.01 sec. (5.07 ticks)
Tried aggregator 1 time.
Reduced MIP has 880 rows, 996 columns, and 3600 nonzeros.
Reduced MIP has 863 binaries, 88 generals, 0 SOSs, and 0 indicators.
Presolve time = 0.00 sec. (2.76 ticks)
Represolve time = 0.03 sec. (23.30 ticks)
    472     0      334.4647   224      292.6515     Cuts: 205    31491   14.29%
    472     0      328.3866   224      292.6515     Cuts: 209    32044   12.21%
    472     0      325.1950   224      292.6515     Cuts: 195    32412   11.12%
*   472+    0                          297.7620      325.1950             9.21%
    472     0        cutoff            297.7620      325.1950    32412    9.21%
    472     0      323.9763   224      297.7620     Cuts: 122    32939    8.80%
    472     0      322.6555   224      297.7620     Cuts: 139    33471    8.36%
    472     0      321.9718   224      297.7620     Cuts: 179    33873    8.13%
*   472+    0                          297.7625      321.9718             8.13%
*   472+    0                          297.7633      321.9718             8.13%
    472     0        cutoff            297.7633      321.9718    33873    8.13%
    472     0      321.6443   224      297.7633     Cuts: 105    34299    8.02%
    472     0      320.8086   224      297.7633      Cuts: 98    35056    7.74%
    472     0      320.4951   224      297.7633     Cuts: 128    35481    7.63%
*   472+    0                          297.7635      320.4951             7.63%
    472     0      319.4753   224      297.7635     Cuts: 102    35814    7.29%
    472     0      319.4467   224      297.7635     Cuts: 136    35915    7.28%
    472     0      319.4460   224      297.7635      Cuts: 44    35982    7.28%
    472     0      319.4458   224      297.7635      Cuts: 25    36019    7.28%
    472     0      319.4456   224      297.7635      Cuts: 29    36068    7.28%
    472     0      319.4287   224      297.7635      Cuts: 28    36293    7.28%
    472     0      319.3332   224      297.7635      Cuts: 73    36540    7.24%
    472     0      319.2750   224      297.7635      Cuts: 86    36687    7.22%
    472     0      319.2535   224      297.7635      Cuts: 56    36827    7.22%
*   472+    0                          297.7637      319.2535             7.22%
    472     2      319.2535   168      297.7637      319.1790    36827    7.19%
    475     5      318.3768   173      297.7637      318.8087    37655    7.07%
    478     8      315.2948   131      297.7637      318.8087    39157    7.07%
    482    11      303.6374   116      297.7637      318.8087    40563    7.07%
    505    30      306.9748   109      297.7637      318.5774    45131    6.99%
Elapsed time = 5.56 sec. (6864.44 ticks, tree = 0.08 MB, solutions = 15)
    597    94      315.5730   184      297.7637      317.9754    53487    6.79%
    722   163      315.1855   129      297.7637      316.0161    65950    6.13%
    820   228      312.0737   168      297.7637      315.4015    74496    5.92%
*   932+  312                          298.3664      315.1480             5.62%
*   942+  321                          298.3680      315.1480             5.62%
    954   330      308.0720   102      298.3680      315.1319    84948    5.62%
   1025   369      307.4624   157      298.3680      314.5689    94549    5.43%
*  1042+  376                          298.3685      314.5018             5.41%
   1099   397      310.7941   151      298.3685      313.7226   105252    5.15%
   1185   436      298.4527   135      298.3685      312.2036   117576    4.64%
   1270   460      298.4544   129      298.3685      311.3061   129058    4.34%
*  1322+  424                          299.0266      310.4145             3.81%
*  1332+  433                          299.0267      310.4145             3.81%
*  1332+  433                          299.0270      310.4145             3.81%
*  1342+  442                          299.0272      310.4145             3.81%
*  1345   441      integral     0      299.0274      310.4145   137333    3.81%
   1425   453        cutoff            299.0274      309.4082   149692    3.47%
Elapsed time = 12.96 sec. (16389.22 ticks, tree = 0.36 MB, solutions = 23)
*  1472+  293                          302.2568      309.2234             2.30%
   1496   285      305.3245   119      302.2568      308.6337   159311    2.11%
   1612   316      304.9957   163      302.2568      308.2300   168798    1.98%
   1688   288      304.3975   118      302.2568      307.1507   178469    1.62%
   1792   264        cutoff            302.2568      306.0989   188414    1.27%
*  1812+  265                          302.2568      306.0924             1.27%
*  1822+  275                          302.2571      306.0924             1.27%
*  1922+  293                          302.2576      305.8071             1.17%
   1929   290        cutoff            302.2576      305.7650   198344    1.16%
   2032   230      303.9957   137      302.2576      304.6400   210964    0.79%
   2268   146        cutoff            302.2576      302.2911   222561    0.01%

GUB cover cuts applied:  43
Clique cuts applied:  38
Cover cuts applied:  5
Implied bound cuts applied:  51
Flow cuts applied:  32
Mixed integer rounding cuts applied:  92
Zero-half cuts applied:  46
Lift and project cuts applied:  22
Gomory fractional cuts applied:  6

Root node processing (before b&c):
  Real time             =    0.58 sec. (652.26 ticks)
Sequential b&c:
  Real time             =   17.71 sec. (22516.35 ticks)
                          ------------
Total (root+branch&cut) =   18.29 sec. (23168.61 ticks)

Solution pool: 28 solutions saved.

MIP - Integer optimal, tolerance (0.0001/1e-06):  Objective =  3.0225757124e+02
Current MIP best bound =  3.0228739529e+02 (gap = 0.0298241, 0.01%)
Solution time =   18.29 sec.  Iterations = 222928  Nodes = 2278 (137)
Deterministic time = 23168.62 ticks  (1266.60 ticks/sec)


Incumbent solution
Variable Name           Solution Value
F                           340.000000
f1                            0.942429
f2                           36.800000
y17                           1.000000
y20                           1.000000
y138                          1.000000
y144                          1.000000
y149                          1.000000
y263                          1.000000
y274                          1.000000
y284                          1.000000
y241                          1.000000
y168                          1.000000
y76                           1.000000
y226                          1.000000
y221                          1.000000
y287                          1.000000
y94                           1.000000
y199                          1.000000
y270                          1.000000
y235                          1.000000
y35                           1.000000
y128                          1.000000
y294                          1.000000
s1                            6.000000
s4                            6.000000
s17                           6.434703
s20                           6.772362
s24                           6.000000
s31                           6.000000
s38                           6.000000
s39                           6.000000
s47                           6.000000
s75                           6.000000
s89                           6.000000
s117                          6.000000
s122                          6.000000
s133                          6.000000
s134                          6.000000
s138                          6.363199
s139                          6.000000
s144                          6.443236
s149                          6.671745
s164                          6.000000
s178                          6.000000
s183                          6.000000
s187                          6.000000
s188                          6.000000
s191                          6.000000
s211                          6.000000
s214                          6.000000
s219                          6.000000
s237                          6.000000
s238                          6.000000
s240                          6.000000
s245                          6.000000
s258                          6.000000
s263                          6.058107
s264                          6.000000
s272                          6.000000
s274                          6.563151
s282                          6.000000
s284                          6.502266
s15                           6.010000
s241                          6.869924
s175                          6.050000
s174                          6.110000
s168                          6.568872
s76                           7.232590
s147                          6.640000
s204                          6.650000
s114                          6.760000
s226                          7.759112
s248                          6.840000
s221                          7.643407
s52                           6.940000
s287                          7.689872
s94                           8.015526
s199                          8.036710
s270                          7.942329
s235                          8.050958
s35                           7.922464
s177                          7.210000
s128                          8.009328
s294                          7.385059
x60x17x1                      2.000000
x150x149x1                    2.000000
x208x263x1                    1.000000
x40x274x1                     1.000000
x97x20x1                      2.000000
x66x284x2                     1.000000
x152x274x2                    1.000000
x269x144x2                    1.000000
x297x241x2                    1.000000
x297x294x2                    1.000000
x208x263x2                    1.000000
x40x138x2                     1.000000
x205x138x3                    1.000000
x66x284x3                     1.000000
x152x241x3                    1.000000
x269x144x3                    1.000000
x169x76x3                     1.000000
x169x294x3                    1.000000
x116x168x3                    2.000000
x17x287x1                     1.000000
x17x35x1                      1.000000
x20x270x1                     2.000000
x138x226x2                    1.000000
x138x35x3                     1.000000
x144x226x2                    1.000000
x144x235x3                    1.000000
x149x0x1                      1.000000
x149x199x1                    1.000000
x263x76x1                     1.000000
x263x287x2                    1.000000
x274x199x1                    1.000000
x274x235x2                    1.000000
x284x128x2                    1.000000
x284x128x3                    1.000000
x241x94x2                     1.000000
x241x94x3                     1.000000
x168x221x3                    2.000000
x76x0x1                       1.000000
x76x0x3                       1.000000
x226x0x2                      2.000000
x221x0x3                      2.000000
x287x0x1                      1.000000
x287x0x2                      1.000000
x94x0x2                       1.000000
x94x0x3                       1.000000
x199x0x1                      2.000000
x270x0x1                      2.000000
x235x0x2                      1.000000
x235x0x3                      1.000000
x35x0x1                       1.000000
x35x0x3                       1.000000
x128x0x2                      1.000000
x128x0x3                      1.000000
x294x0x2                      1.000000
x294x0x3                      1.000000
s60                           4.368050
z60z17z1                      1.000000
z60z199z1                     1.000000
z60z270z1                     1.000000
s205                          4.607460
z205z24z3                     1.000000
z205z138z3                    1.000000
z205z168z3                    1.000000
z205z114z3                    1.000000
z205z248z3                    1.000000
z205z221z3                    1.000000
z205z52z3                     1.000000
s66                           4.978560
z66z284z2                     1.000000
z66z284z3                     1.000000
z66z114z3                     1.000000
z66z248z3                     1.000000
z66z221z3                     1.000000
z66z52z3                      1.000000
s152                          4.815160
z152z274z2                    1.000000
z152z241z3                    1.000000
z152z114z3                    1.000000
z152z221z3                    1.000000
z152z52z3                     1.000000
s269                          4.951080
z269z144z2                    1.000000
z269z144z3                    1.000000
z269z114z3                    1.000000
z269z226z2                    1.000000
z269z248z3                    1.000000
z269z221z3                    1.000000
z269z52z3                     1.000000
s150                          5.009780
z150z149z1                    1.000000
z150z199z1                    1.000000
z150z270z1                    1.000000
s169                          5.204180
z169z76z3                     1.000000
z169z294z3                    1.000000
s297                          5.123060
z297z241z2                    1.000000
z297z226z2                    1.000000
z297z294z2                    1.000000
s116                          5.278910
z116z168z3                    1.000000
z116z114z3                    1.000000
z116z221z3                    1.000000
z116z52z3                     1.000000
s208                          4.832250
z208z263z1                    1.000000
z208z263z2                    1.000000
z208z226z2                    1.000000
z208z199z1                    1.000000
z208z270z1                    1.000000
s40                           4.985870
z40z138z2                     1.000000
z40z274z1                     1.000000
z40z226z2                     1.000000
z40z199z1                     1.000000
z40z270z1                     1.000000
s97                           5.109100
z97z20z1                      1.000000
z97z199z1                     1.000000
z97z270z1                     1.000000
z17z287z1                     1.000000
z17z35z1                      1.000000
z20z270z1                     1.000000
z138z226z2                    1.000000
z138z35z3                     1.000000
z144z226z2                    1.000000
z144z235z3                    1.000000
z149z199z1                    1.000000
z149z270z1                    1.000000
z263z76z1                     1.000000
z263z287z2                    1.000000
z274z199z1                    1.000000
z274z235z2                    1.000000
z284z128z2                    1.000000
z284z128z3                    1.000000
z241z94z2                     1.000000
z241z94z3                     1.000000
z168z221z3                    1.000000
All other variables in the range 1-2224 are 0.
